problems/csplib-prob015/SchursLemma-models/noch/O2/lingeling/model_1_2-3-13-solution000001.eprime-solution
language ESSENCE' 1.0

letting boxes_PartitionAsSet_ExplicitR6_ExplicitVarSizeWithDummy be
        [[1, 4, 6, 9, 12, 14, 14, 14, 14, 14, 14, 14, 14; int(1..13)],
         [2, 3, 13, 14, 14, 14, 14, 14, 14, 14, 14, 14, 14; int(1..13)],
         [5, 7, 8, 10, 11, 14, 14, 14, 14, 14, 14, 14, 14; int(1..13)]; int(1..3)]
